(set-info :smt-lib-version 2.6)
(set-logic QF_UFLRA)
(set-info :source |
MathSat group

|)
(set-info :category "random")
(set-info :status sat)
(declare-fun x0 () Real)
(declare-fun x1 () Real)
(declare-fun x2 () Real)
(declare-fun x3 () Real)
(declare-fun x4 () Real)
(declare-fun x5 () Real)
(declare-fun x6 () Real)
(declare-fun x7 () Real)
(declare-fun x8 () Real)
(declare-fun x9 () Real)
(declare-fun x10 () Real)
(declare-fun x11 () Real)
(declare-fun x12 () Real)
(declare-fun x13 () Real)
(declare-fun x14 () Real)
(declare-fun x15 () Real)
(declare-fun x16 () Real)
(declare-fun x17 () Real)
(declare-fun x18 () Real)
(declare-fun x19 () Real)
(declare-fun x20 () Real)
(declare-fun x21 () Real)
(declare-fun x22 () Real)
(declare-fun x23 () Real)
(declare-fun x24 () Real)
(declare-fun x25 () Real)
(declare-fun x26 () Real)
(declare-fun x27 () Real)
(declare-fun x28 () Real)
(declare-fun x29 () Real)
(declare-fun x30 () Real)
(declare-fun x31 () Real)
(declare-fun x32 () Real)
(declare-fun x33 () Real)
(declare-fun x34 () Real)
(declare-fun x35 () Real)
(declare-fun x36 () Real)
(declare-fun x37 () Real)
(declare-fun x38 () Real)
(declare-fun x39 () Real)
(declare-fun f0_1 (Real) Real)
(declare-fun f0_2 (Real Real) Real)
(declare-fun f0_3 (Real Real Real) Real)
(declare-fun f0_4 (Real Real Real Real) Real)
(declare-fun P0 () Bool)
(declare-fun P1 () Bool)
(declare-fun P2 () Bool)
(declare-fun P3 () Bool)
(declare-fun P4 () Bool)
(declare-fun P5 () Bool)
(declare-fun P6 () Bool)
(declare-fun P7 () Bool)
(declare-fun P8 () Bool)
(declare-fun P9 () Bool)
(declare-fun P10 () Bool)
(declare-fun P11 () Bool)
(declare-fun P12 () Bool)
(declare-fun P13 () Bool)
(declare-fun P14 () Bool)
(declare-fun P15 () Bool)
(declare-fun P16 () Bool)
(declare-fun P17 () Bool)
(declare-fun P18 () Bool)
(declare-fun P19 () Bool)
(declare-fun P20 () Bool)
(declare-fun P21 () Bool)
(declare-fun P22 () Bool)
(declare-fun P23 () Bool)
(declare-fun P24 () Bool)
(declare-fun P25 () Bool)
(declare-fun P26 () Bool)
(declare-fun P27 () Bool)
(declare-fun P28 () Bool)
(declare-fun P29 () Bool)
(declare-fun P30 () Bool)
(declare-fun P31 () Bool)
(declare-fun P32 () Bool)
(declare-fun P33 () Bool)
(declare-fun P34 () Bool)
(declare-fun P35 () Bool)
(declare-fun P36 () Bool)
(declare-fun P37 () Bool)
(declare-fun P38 () Bool)
(declare-fun P39 () Bool)
(assert (let ((?v_180 (distinct (- (- (* 57 x33) (* 37 x16)) (* 49 x20)) 20)) (?v_114 (< (- (- (* 42 x30) (* 9 x35)) (* 36 x3)) 53)) (?v_89 (= (+ (- (* 3 x34) (* 22 x24)) (* 53 x15)) 1)) (?v_29 (< (+ (- (* 21 x29) (* 46 x23)) (* 48 x35)) 12)) (?v_42 (= (+ (- (* 52 x27) (* 40 x1)) (* 55 x33)) 6)) (?v_169 (<= (- (- (* 49 x34) (* 29 x26)) (* 11 x17)) 33)) (?v_85 (= (- (- (* 35 x25) (* 34 x33)) (* 28 x6)) 44)) (?v_5 (* 52 x15))) (let ((?v_88 (<= (- (+ (* 25 x15) (* 23 x22)) ?v_5) 34)) (?v_25 (< (- (- (* 16 x33) (* 54 x35)) (* 39 x24)) 27)) (?v_49 (= (f0_2 x17 x2) (f0_2 x7 x9))) (?v_2 (f0_1 x9))) (let ((?v_65 (distinct ?v_2 (f0_2 x5 x0))) (?v_17 (f0_1 x39))) (let ((?v_32 (distinct (f0_2 x30 x2) ?v_17)) (?v_155 (= x16 x21)) (?v_91 (distinct x12 x6)) (?v_8 (f0_2 x13 x23))) (let ((?v_57 (= (f0_2 x15 x6) ?v_8)) (?v_183 (= x15 ?v_17)) (?v_73 (distinct (f0_2 x21 x16) x12)) (?v_189 (= x14 x7)) (?v_7 (f0_1 x28))) (let ((?v_1 (= ?v_7 x21)) (?v_51 (f0_1 x0))) (let ((?v_92 (= (f0_2 x20 x17) ?v_51)) (?v_40 (= x22 x8)) (?v_108 (distinct x14 x4)) (?v_45 (f0_2 x19 x39))) (let ((?v_107 (distinct ?v_2 ?v_45)) (?v_36 (f0_1 x36))) (let ((?v_103 (distinct ?v_7 ?v_36)) (?v_145 (= x20 x8)) (?v_37 (distinct ?v_36 (f0_2 x16 x33))) (?v_58 (= x26 (f0_1 x16))) (?v_12 (distinct x30 (f0_2 x14 x16))) (?v_13 (distinct x5 ?v_36)) (?v_27 (distinct ?v_8 (f0_1 x2))) (?v_18 (= (f0_2 x27 x3) x20)) (?v_46 (f0_1 x38))) (let ((?v_113 (distinct ?v_45 ?v_46)) (?v_110 (= ?v_7 ?v_46)) (?v_60 (distinct ?v_51 (f0_2 x7 x39))) (?v_81 (= (f0_1 x14) x3)) (?v_9 (= (f0_2 x16 x34) (f0_2 x35 x35))) (?v_19 (= x11 (f0_2 x8 x27))) (?v_96 (distinct (f0_2 x12 x18) (f0_1 x34))) (?v_31 (distinct x4 (f0_2 x30 x33))) (?v_98 (distinct ?v_17 x13)) (?v_135 (= (f0_2 x39 x39) x4)) (?v_38 (= (f0_2 x7 x38) (f0_2 x31 x9))) (?v_134 (distinct (f0_2 x16 x38) x9)) (?v_90 (distinct x15 (f0_1 x21))) (?v_74 (distinct ?v_51 ?v_51)) (?v_21 (distinct (f0_1 x15) x0)) (?v_122 (= x34 (f0_2 x14 x26))) (?v_68 (= (f0_2 x28 x6) x37)) (?v_177 (= x14 (f0_2 x39 x17))) (?v_24 (not ?v_12))) (let ((?v_16 (not ?v_90)) (?v_6 (not ?v_114)) (?v_143 (not ?v_27)) (?v_109 (not P31)) (?v_153 (not ?v_13)) (?v_86 (not P14)) (?v_66 (not P2)) (?v_30 (not P25)) (?v_131 (not P26)) (?v_3 (not P9)) (?v_55 (not P3)) (?v_118 (not ?v_107)) (?v_41 (not ?v_21)) (?v_11 (not P10)) (?v_149 (not ?v_177)) (?v_47 (not P23)) (?v_48 (not ?v_19)) (?v_82 (not ?v_31)) (?v_35 (not P8)) (?v_15 (not ?v_18)) (?v_22 (not ?v_40)) (?v_190 (not ?v_25)) (?v_129 (not P35)) (?v_136 (not P39)) (?v_10 (not P5)) (?v_26 (not ?v_183)) (?v_63 (not ?v_57)) (?v_95 (not ?v_9)) (?v_28 (not ?v_108)) (?v_162 (not P24)) (?v_72 (not P17)) (?v_179 (not P33)) (?v_139 (not P38)) (?v_43 (not P13)) (?v_174 (not ?v_29)) (?v_148 (not P27)) (?v_84 (not ?v_32)) (?v_151 (not P7)) (?v_54 (not ?v_37)) (?v_52 (not P11)) (?v_185 (not ?v_169)) (?v_102 (not P28)) (?v_199 (not P34)) (?v_76 (not ?v_42)) (?v_83 (not ?v_155)) (?v_64 (not P15)) (?v_69 (not ?v_180)) (?v_152 (not ?v_1)) (?v_121 (not P16)) (?v_184 (not ?v_92)) (?v_160 (not P21)) (?v_59 (not ?v_58)) (?v_147 (not ?v_122)) (?v_164 (not P32)) (?v_210 (not ?v_38)) (?v_94 (not ?v_74)) (?v_130 (not P37)) (?v_150 (not ?v_65)) (?v_123 (not ?v_81)) (?v_206 (not ?v_88)) (?v_142 (not ?v_89)) (?v_163 (not P18)) (?v_173 (not ?v_91)) (?v_188 (not ?v_96)) (?v_126 (not ?v_98)) (?v_127 (not P12)) (?v_115 (not P0))) (let ((?v_137 (or ?v_115 P1)) (?v_140 (not ?v_103)) (?v_165 (not P4)) (?v_119 (not ?v_49)) (?v_157 (not P20)) (?v_144 (not ?v_85)) (?v_196 (not P1)) (?v_125 (not P29)) (?v_176 (not ?v_60)) (?v_138 (not P22)) (?v_146 (not ?v_135)) (?v_203 (not ?v_134)) (?v_192 (not ?v_145)) (?v_171 (not P6)) (?v_191 (not P36)) (?v_175 (not ?v_68)) (?v_181 (not P30)) (?v_198 (not ?v_113)) (?v_197 (not ?v_73)) (?v_209 (not ?v_110)) (?v_208 (not ?v_189)) (?v_201 (not P19)) (?v_200 (< (+ (* 18 x0) (* 27 x24) (* 5 x16)) 34))) (let ((?v_0 (not ?v_200)) (?v_61 (<= (+ (* 2 x0) (* 41 x5) (* 13 x25)) 13)) (?v_97 (< (+ (* 28 x1) (* 44 x36) (* 13 x20)) 53))) (let ((?v_105 (not ?v_61)) (?v_167 (not ?v_97)) (?v_178 (< (+ (- (* 9 x14) 0) (* 24 x30)) (- 36)))) (let ((?v_14 (not ?v_178)) (?v_70 (= (+ (* (- 48) x4) (* 15 x1) (* 36 x9)) (- 19)))) (let ((?v_34 (not ?v_70)) (?v_193 (< (+ (* 35 x10) (* 21 x30) (* 20 x21)) (- 35)))) (let ((?v_53 (not ?v_193)) (?v_23 (<= (+ (* 2 x4) (* 4 x6) (* 16 x9)) (- 42))) (?v_33 (<= (+ (* 12 x16) (* 52 x19) (* 24 x5)) (- 26))) (?v_4 (= (+ (* (- 8) x20) (* 34 x16) (* 6 x1)) (- 15)))) (let ((?v_159 (not ?v_4)) (?v_75 (distinct (- (+ (* (- 38) x13) (* 33 x20)) (* 31 x13)) 56)) (?v_44 (= (- (- (* (- 56) x7) (* 11 x6)) ?v_5) 22)) (?v_93 (<= (+ (- (* 30 x23) (* 34 x1)) (* 19 x12)) (- 40)))) (let ((?v_80 (not ?v_93)) (?v_20 (< (- (+ (* (- 16) x29) (* 9 x11)) (* 36 x16)) (- 54)))) (let ((?v_71 (not ?v_20)) (?v_78 (< (+ (* (- 20) x0) (* 49 x1) (* 36 x12)) (- 55)))) (let ((?v_104 (not ?v_78)) (?v_56 (not ?v_23)) (?v_39 (= (- (+ (* 51 x28) (* 28 x4)) (* 14 x11)) (- 44))) (?v_120 (= (+ (- (* (- 47) x3) (* 53 x35)) (* 35 x4)) 53))) (let ((?v_77 (not ?v_120)) (?v_128 (< (- (- (* (- 4) x21) (* 6 x25)) (* 20 x11)) (- 49))) (?v_87 (<= (- (- (* 52 x30) (* 56 x38)) (* 35 x29)) (- 34)))) (let ((?v_124 (not ?v_87)) (?v_207 (= (- (+ (* (- 50) x26) (* 11 x31)) (* 49 x37)) (- 38)))) (let ((?v_156 (not ?v_207)) (?v_50 (< (+ (- (* (- 3) x20) (* 5 x19)) (* 24 x36)) (- 50)))) (let ((?v_158 (not ?v_50)) (?v_62 (distinct (+ (- (* 48 x3) 0) (* 16 x28)) (- 34)))) (let ((?v_101 (not ?v_62)) (?v_79 (< (- (- (* 15 x5) (* 41 x15)) (* 47 x6)) (- 12))) (?v_67 (<= (- (+ (* (- 19) x26) (* 41 x29)) (* 41 x26)) (- 17)))) (let ((?v_112 (not ?v_67)) (?v_205 (< (+ (* (- 53) x23) (* 31 x26) (* 32 x4)) 38))) (let ((?v_166 (not ?v_205)) (?v_172 (<= (- (+ (* (- 7) x28) (* 47 x32)) (* 38 x1)) (- 47)))) (let ((?v_168 (not ?v_172)) (?v_170 (< (- (- (* (- 9) x21) (* 28 x26)) (* 45 x6)) (- 22)))) (let ((?v_141 (not ?v_170)) (?v_117 (not ?v_44))) (let ((?v_202 (or ?v_78 ?v_117)) (?v_116 (not ?v_79)) (?v_99 (not ?v_39)) (?v_100 (< (+ (- (* 2 x38) (* 34 x25)) (* 28 x14)) (- 5))) (?v_106 (not ?v_75))) (let ((?v_111 (not ?v_100)) (?v_133 (not ?v_33)) (?v_132 (<= (+ (* 39 x10) (* 25 x33) (* 27 x9)) (- 31))) (?v_161 (= (+ (* (- 7) x36) (* 33 x4) (* 56 x12)) 43))) (let ((?v_154 (not ?v_161)) (?v_195 (< (+ (- (* (- 55) x0) 0) (* 29 x27)) (- 17)))) (let ((?v_204 (not ?v_195)) (?v_194 (<= (- (+ x32 (* 5 x2)) (* 43 x1)) (- 1)))) (let ((?v_182 (not ?v_194)) (?v_186 (or ?v_116 ?v_147)) (?v_187 (or ?v_129 ?v_101))) (and (and (and (and (and (and (and (and (and (and (and (and (and (and (and (and (and (and (and (and (and (and (and (and (and (and (and (and (and (and (and (and (and (and (and (and (and (and (and (and (and (and (and (and (and (and (and (and (and (and (and (and (and (and (and (and (and (and (and (and (and (and (and (and (and (and (and (and (and (and (and (and (and (and (and (and (and (and (and (and (and (and (and (and (and (and (and (and (and (and (and (and (and (and (and (and (and (and (and (and (and (and (and (and (and (and (and (and (and (and (and (and (and (and (and (and (and (and (and (and (and (and (and (and (and (and (and (and (and (and (and (and (and (and (and (and (and (and (and (and (and (and (and (and (and (and (and (and (and (and (and (and (and (and (and (and (and (and (and (and (and (and (and (and (and (and (and (and (and (and (and (and (and (and (and (and (and (and (and (and (and (and (and (and (and (and (and (and (and (and (and (and (and (and (and (and (and (and (and (and (and (and (and (and (and (and (and (and (and (and (and (and (and (and (and (and (and (and (and (and (and (and (and (and (and (and (and (and (and (and (and (and (and (and (and (and (and (and (and (and (and (and (and (and (and (and (and (and (and (and (and (and (and (and (and (and (and (and (and (and (and (and (and (and (and (and (and (and (and (and (and (and (and (and (and (and (and (and (and (and (and (and (and (and (and (and (and (and (and (and (and (and (and (and (and (and (and (and (and (and (and (and (and (and (and (and (and (and (and (and (and (and (and (and (and (and (and (and (and (and (and (and (and (and (and (and (and (and (and (and (and (and (and (and (and (and (and (and (and (and (and (and (and (and (and (and (and (and (and (and (and (and (and (and (and (and (and (and (and (and (and (and (and (and (and (and (and (and (and (and (and (and (and (and (and (and (and (and (and (and (and (and (and (and (and (and (and (and (and (and (and (and (and (and (and (and (and (and (and (and (and (and (and (and (and (and (and (and (and (and (and (and (and (and (and (and (and (and (and (and (and (and (and (and (and (and (and (and (and (and (and (and (and (and (and (and (and (and (and (and (and (and (and (and (and (and (and (and (and (and (and (and (and (and (and (and (and (and (and (and (and (and (and (and (and (and (and (and (and (and (and (and (and (and (and (and (and (and (and (or (or ?v_65 ?v_14) ?v_24) (or (or ?v_16 ?v_34) P20)) (or (or ?v_0 ?v_6) ?v_143)) (or (or ?v_109 ?v_53) ?v_153)) (or (or ?v_86 ?v_66) ?v_1)) (or (or ?v_30 ?v_131) ?v_3)) (or (or P35 ?v_55) ?v_0)) (or (or P39 ?v_1) ?v_118)) (or (or P33 ?v_38) ?v_41)) (or (or ?v_23 ?v_11) ?v_49)) (or (or ?v_149 ?v_47) ?v_48)) (or (or ?v_61 ?v_3) ?v_82)) (or (or ?v_35 ?v_91) ?v_15)) (or (or P28 ?v_22) ?v_33)) (or (or ?v_4 ?v_9) ?v_73)) (or (or ?v_58 ?v_190) ?v_129)) (or (or ?v_136 ?v_10) ?v_159)) (or (or ?v_75 ?v_44) ?v_88)) (or (or ?v_26 ?v_60) ?v_6)) (or (or ?v_110 P18) ?v_4)) (or (or ?v_29 ?v_63) P4)) (or (or ?v_9 ?v_10) P17)) (or (or ?v_95 ?v_11) ?v_12)) (or (or ?v_13 ?v_28) ?v_80)) (or (or ?v_162 P18) ?v_72)) (or (or ?v_14 ?v_15) ?v_89)) (or (or ?v_16 ?v_98) ?v_18)) (or (or ?v_3 P33) ?v_71)) (or (or ?v_19 P26) P2)) (or (or ?v_104 P4) ?v_1)) (or (or ?v_14 ?v_32) P20)) (or (or ?v_20 ?v_21) ?v_4)) (or (or ?v_22 P10) P16)) (or (or P32 ?v_56) ?v_24)) (or (or ?v_39 ?v_179) ?v_25)) (or (or P12 ?v_139) ?v_26)) (or (or ?v_27 ?v_27) P26)) (or (or ?v_43 ?v_19) ?v_28)) (or (or ?v_174 ?v_30) ?v_14)) (or (or ?v_97 ?v_148) ?v_31)) (or (or ?v_42 P14) P26)) (or (or ?v_81 ?v_85) ?v_84)) (or (or ?v_33 ?v_77) P9)) (or (or P35 ?v_31) ?v_151)) (or (or ?v_34 ?v_35) ?v_54)) (or (or ?v_37 ?v_52) (not ?v_128))) (or (or ?v_124 ?v_185) P12)) (or (or ?v_102 ?v_156) ?v_38)) (or (or ?v_39 ?v_199) ?v_40)) (or (or P31 ?v_41) ?v_76)) (or (or ?v_43 ?v_44) ?v_83)) (or (or ?v_35 ?v_113) P36)) (or (or P8 ?v_158) ?v_47)) (or (or ?v_68 ?v_64) ?v_101)) (or (or ?v_79 ?v_26) ?v_22)) (or (or ?v_69 ?v_18) ?v_48)) (or (or ?v_49 ?v_20) ?v_41)) (or (or ?v_50 ?v_152) ?v_121)) (or (or ?v_27 ?v_112) ?v_184)) (or (or P1 ?v_52) ?v_53)) (or (or ?v_54 ?v_55) ?v_56)) (or (or ?v_160 ?v_57) P39)) (or (or ?v_6 ?v_49) ?v_44)) (or (or ?v_59 ?v_59) P5)) (or (or P29 ?v_166) ?v_24)) (or (or ?v_60 P2) ?v_147)) (or (or ?v_61 ?v_62) ?v_63)) (or (or P24 ?v_64) ?v_65)) (or (or ?v_66 ?v_67) ?v_27)) (or (or ?v_68 ?v_69) ?v_70)) (or (or P23 ?v_1) ?v_71)) (or (or ?v_1 ?v_32) ?v_24)) (or (or ?v_168 P35) ?v_74)) (or (or P31 ?v_67) ?v_9)) (or (or ?v_72 ?v_73) P39)) (or (or ?v_63 P3) ?v_74)) (or (or ?v_96 ?v_75) ?v_141)) (or (or ?v_53 ?v_40) P39)) (or (or ?v_44 ?v_76) P2)) (or (or ?v_77 ?v_164) ?v_24)) (or ?v_202 ?v_210)) (or (or ?v_94 P3) ?v_130)) (or (or ?v_39 ?v_150) P21)) (or (or ?v_29 ?v_116) ?v_73)) (or (or ?v_15 ?v_80) ?v_25)) (or (or ?v_123 ?v_145) P39)) (or (or ?v_82 P9) P34)) (or (or ?v_83 ?v_99) ?v_24)) (or (or ?v_84 ?v_55) ?v_85)) (or (or ?v_18 ?v_86) P19)) (or (or ?v_103 ?v_87) ?v_206)) (or (or P27 ?v_84) ?v_142)) (or (or ?v_90 ?v_48) ?v_62)) (or (or ?v_163 ?v_43) P20)) (or (or ?v_173 ?v_86) ?v_44)) (or (or ?v_21 ?v_105) P20)) (or (or ?v_77 ?v_92) ?v_88)) (or (or ?v_20 ?v_93) ?v_94)) (or (or ?v_76 ?v_100) ?v_106)) (or (or ?v_78 ?v_78) P26)) (or (or ?v_83 ?v_95) ?v_188)) (or (or ?v_167 ?v_126) ?v_99)) (or (or ?v_111 ?v_81) P12)) (or (or ?v_101 ?v_94) ?v_133)) (or (or ?v_74 ?v_89) ?v_33)) (or (or ?v_75 ?v_85) ?v_127)) (or (or ?v_86 ?v_92) ?v_102)) (or ?v_137 P32)) (or (or ?v_140 ?v_75) ?v_165)) (or (or P15 P22) ?v_66)) (or (or ?v_81 ?v_104) ?v_27)) (or (or ?v_119 ?v_93) ?v_105)) (or (or ?v_106 ?v_44) P22)) (or (or ?v_157 P27) ?v_107)) (or (or P0 ?v_39) P24)) (or (or ?v_22 ?v_89) P20)) (or (or ?v_41 ?v_11) ?v_49)) (or (or ?v_103 P28) ?v_108)) (or (or ?v_91 ?v_109) P2)) (or (or ?v_80 ?v_144) ?v_101)) (or (or P26 ?v_110) ?v_74)) (or (or ?v_111 ?v_112) ?v_113)) (or (or ?v_34 ?v_114) ?v_83)) (or (or ?v_115 P37) ?v_116)) (or (or P2 ?v_117) ?v_9)) (or (or ?v_39 P9) ?v_118)) (or (or ?v_119 ?v_67) ?v_196)) (or (or ?v_120 ?v_125) P12)) (or (or ?v_121 ?v_13) ?v_122)) (or (or ?v_100 ?v_93) ?v_66)) (or (or ?v_123 ?v_132) ?v_135)) (or (or ?v_124 ?v_20) ?v_113)) (or (or ?v_125 ?v_114) ?v_126)) (or (or ?v_23 ?v_112) ?v_127)) (or (or ?v_128 P37) ?v_84)) (or (or ?v_35 P23) ?v_78)) (or (or ?v_129 ?v_111) ?v_130)) (or (or ?v_16 ?v_176) ?v_78)) (or (or ?v_134 ?v_99) P11)) (or (or ?v_131 ?v_56) ?v_132)) (or (or ?v_89 ?v_133) ?v_52)) (or (or ?v_85 ?v_65) ?v_127)) (or (or ?v_134 ?v_121) ?v_85)) (or (or ?v_82 ?v_138) P18)) (or (or ?v_129 ?v_27) P30)) (or (or ?v_25 ?v_125) P30)) (or (or ?v_66 ?v_146) ?v_136)) (or (or ?v_87 ?v_4) ?v_132)) (or (or ?v_154 ?v_82) ?v_93)) (or ?v_137 ?v_104)) (or (or ?v_25 P11) P14)) (or (or ?v_76 ?v_42) ?v_138)) (or (or ?v_139 ?v_140) ?v_74)) (or (or P16 P21) ?v_60)) (or (or ?v_39 ?v_130) ?v_141)) (or (or ?v_203 ?v_103) ?v_12)) (or (or ?v_130 P5) ?v_72)) (or (or ?v_142 ?v_39) ?v_6)) (or (or ?v_116 ?v_125) ?v_80)) (or (or ?v_143 ?v_144) ?v_131)) (or (or ?v_103 ?v_123) ?v_94)) (or (or ?v_192 ?v_146) ?v_48)) (or (or ?v_147 P28) ?v_100)) (or (or ?v_204 ?v_147) ?v_148)) (or (or ?v_122 ?v_4) ?v_89)) (or (or ?v_101 ?v_149) P25)) (or (or ?v_79 P18) ?v_77)) (or (or ?v_150 ?v_151) ?v_49)) (or (or P30 ?v_152) ?v_132)) (or (or P6 ?v_182) ?v_14)) (or (or ?v_153 ?v_16) P32)) (or (or ?v_37 ?v_97) ?v_44)) (or (or ?v_146 ?v_141) ?v_154)) (or (or ?v_125 ?v_11) ?v_155)) (or (or ?v_155 ?v_149) ?v_98)) (or (or ?v_156 ?v_24) ?v_157)) (or (or ?v_171 ?v_86) P29)) (or (or ?v_146 ?v_104) P33)) (or (or ?v_158 P20) ?v_47)) (or (or ?v_159 ?v_43) ?v_113)) (or (or ?v_54 ?v_4) ?v_14)) (or (or P15 ?v_160) ?v_161)) (or (or ?v_107 ?v_92) ?v_42)) (or (or ?v_80 ?v_16) ?v_25)) (or (or ?v_118 ?v_65) ?v_162)) (or (or ?v_191 ?v_26) ?v_163)) (or (or ?v_64 ?v_19) ?v_32)) (or (or ?v_1 ?v_164) ?v_165)) (or (or ?v_64 ?v_166) ?v_12)) (or (or ?v_114 ?v_81) ?v_167)) (or (or ?v_107 ?v_141) ?v_116)) (or (or ?v_126 ?v_0) ?v_95)) (or (or ?v_23 P18) ?v_129)) (or (or P13 ?v_60) ?v_161)) (or (or ?v_74 ?v_77) ?v_168)) (or (or ?v_108 ?v_70) P32)) (or (or ?v_169 ?v_170) ?v_144)) (or (or ?v_159 P25) ?v_15)) (or (or ?v_62 ?v_145) ?v_161)) (or (or ?v_70 ?v_83) ?v_52)) (or (or ?v_37 ?v_4) ?v_170)) (or (or ?v_136 ?v_154) ?v_171)) (or (or ?v_105 ?v_62) ?v_118)) (or (or P7 ?v_91) ?v_108)) (or (or ?v_15 ?v_175) ?v_11)) (or (or P31 P19) ?v_31)) (or (or ?v_84 ?v_172) P22)) (or (or ?v_50 ?v_109) ?v_42)) (or (or P14 ?v_127) ?v_60)) (or (or ?v_173 ?v_89) ?v_146)) (or (or ?v_43 P31) ?v_21)) (or (or ?v_66 ?v_80) P16)) (or (or ?v_174 P1) ?v_175)) (or (or P4 P28) ?v_50)) (or (or ?v_15 ?v_139) P11)) (or (or ?v_176 ?v_86) ?v_124)) (or (or ?v_38 ?v_166) ?v_171)) (or (or ?v_49 ?v_158) ?v_58)) (or (or ?v_169 ?v_177) P24)) (or (or ?v_78 ?v_156) ?v_91)) (or (or P11 ?v_65) P28)) (or (or ?v_94 ?v_178) ?v_163)) (or (or ?v_61 ?v_94) ?v_109)) (or (or P6 ?v_29) ?v_40)) (or ?v_186 ?v_119)) (or (or ?v_92 ?v_18) ?v_179)) (or (or ?v_70 ?v_82) ?v_149)) (or ?v_187 ?v_110)) (or (or P20 ?v_40) ?v_181)) (or (or ?v_189 P19) ?v_180)) (or (or ?v_99 ?v_70) ?v_181)) (or (or ?v_182 ?v_159) P31)) (or (or ?v_111 ?v_113) ?v_96)) (or (or ?v_115 ?v_61) ?v_71)) (or (or ?v_111 ?v_62) ?v_25)) (or (or P22 ?v_136) ?v_30)) (or (or P6 ?v_56) ?v_159)) (or (or ?v_168 ?v_34) ?v_13)) (or (or ?v_93 P28) ?v_103)) (or (or ?v_127 ?v_125) ?v_100)) (or (or ?v_63 ?v_113) P16)) (or (or ?v_13 ?v_183) ?v_72)) (or (or ?v_143 ?v_11) ?v_156)) (or (or ?v_97 ?v_98) ?v_184)) (or (or ?v_198 ?v_106) ?v_157)) (or (or P8 ?v_59) ?v_102)) (or (or ?v_4 ?v_18) ?v_98)) (or (or ?v_86 ?v_15) ?v_185)) (or ?v_186 P24)) (or (or ?v_54 ?v_30) ?v_143)) (or (or ?v_120 ?v_63) P4)) (or (or P32 P19) ?v_33)) (or (or ?v_41 ?v_103) P10)) (or (or P34 ?v_49) P14)) (or (or ?v_101 ?v_14) ?v_153)) (or (or ?v_28 ?v_159) ?v_155)) (or (or ?v_168 ?v_118) ?v_88)) (or ?v_187 ?v_74)) (or (or ?v_197 P35) ?v_62)) (or (or ?v_145 P27) ?v_188)) (or (or ?v_189 ?v_184) ?v_138)) (or (or ?v_54 P37) ?v_190)) (or (or ?v_191 ?v_14) ?v_90)) (or (or ?v_38 ?v_106) ?v_190)) (or (or ?v_150 ?v_188) ?v_97)) (or (or ?v_65 ?v_170) ?v_99)) (or (or ?v_118 ?v_42) P26)) (or (or ?v_31 P27) ?v_209)) (or (or ?v_61 ?v_76) ?v_140)) (or (or ?v_107 ?v_161) ?v_24)) (or (or P2 P9) ?v_48)) (or (or ?v_47 ?v_64) ?v_23)) (or (or P29 ?v_106) ?v_101)) (or (or ?v_151 ?v_153) ?v_192)) (or (or ?v_109 ?v_161) ?v_73)) (or (or P19 P35) ?v_155)) (or (or ?v_154 ?v_35) P22)) (or (or ?v_190 ?v_141) P11)) (or (or ?v_157 ?v_179) ?v_114)) (or (or ?v_208 ?v_140) ?v_104)) (or (or ?v_160 ?v_92) ?v_144)) (or (or ?v_133 P30) ?v_57)) (or (or ?v_102 ?v_166) ?v_192)) (or (or ?v_101 ?v_22) ?v_166)) (or (or ?v_132 P33) P18)) (or (or ?v_139 ?v_99) ?v_157)) (or (or ?v_151 ?v_10) ?v_159)) (or (or ?v_65 ?v_1) P8)) (or (or ?v_24 ?v_123) P18)) (or (or ?v_10 P25) ?v_125)) (or (or P36 P33) ?v_182)) (or (or ?v_43 ?v_81) ?v_66)) (or (or P32 P3) ?v_96)) (or (or ?v_0 ?v_3) ?v_73)) (or (or ?v_181 ?v_93) P1)) (or (or ?v_9 ?v_114) ?v_175)) (or (or P11 ?v_193) P7)) (or (or ?v_52 ?v_117) ?v_47)) (or (or ?v_115 ?v_88) P11)) (or (or P13 ?v_194) ?v_133)) (or (or ?v_201 ?v_40) ?v_140)) (or (or ?v_150 ?v_35) ?v_40)) (or (or ?v_195 ?v_154) ?v_44)) (or (or ?v_164 ?v_152) ?v_40)) (or (or ?v_96 ?v_196) ?v_122)) (or (or ?v_105 ?v_141) ?v_57)) (or (or ?v_145 P19) ?v_37)) (or (or ?v_163 ?v_50) ?v_149)) (or (or ?v_108 ?v_128) ?v_189)) (or (or ?v_13 ?v_132) P29)) (or (or ?v_66 ?v_162) ?v_179)) (or (or ?v_24 ?v_88) ?v_197)) (or (or ?v_198 ?v_85) ?v_150)) (or (or P28 ?v_57) ?v_35)) (or (or ?v_121 P38) P10)) (or (or ?v_50 ?v_6) ?v_21)) (or (or ?v_38 ?v_110) ?v_98)) (or (or ?v_192 ?v_189) P11)) (or (or ?v_93 ?v_182) ?v_79)) (or (or ?v_153 ?v_38) ?v_20)) (or (or ?v_113 ?v_96) (not ?v_132))) (or (or ?v_54 ?v_50) ?v_161)) (or (or ?v_111 ?v_184) ?v_55)) (or (or ?v_22 P31) ?v_153)) (or (or ?v_150 ?v_92) P2)) (or (or ?v_184 ?v_86) ?v_158)) (or (or ?v_16 ?v_181) ?v_80)) (or (or P22 ?v_199) ?v_43)) (or (or P21 ?v_50) ?v_70)) (or (or ?v_34 ?v_23) ?v_147)) (or (or ?v_50 P39) ?v_146)) (or (or ?v_30 ?v_33) ?v_70)) (or (or P0 ?v_48) ?v_57)) (or (or ?v_19 ?v_110) ?v_177)) (or (or ?v_131 ?v_157) ?v_167)) (or (or ?v_107 ?v_48) ?v_20)) (or (or ?v_153 ?v_70) ?v_191)) (or (or ?v_118 P18) ?v_128)) (or (or ?v_80 ?v_126) P1)) (or (or ?v_129 ?v_155) ?v_98)) (or (or ?v_161 ?v_108) P30)) (or (or ?v_200 ?v_111) P17)) (or (or ?v_125 ?v_113) P1)) (or (or ?v_162 ?v_3) ?v_104)) (or (or P36 P25) ?v_67)) (or (or P38 P6) ?v_33)) (or (or ?v_102 ?v_86) ?v_44)) (or (or P26 ?v_180) ?v_83)) (or (or ?v_154 ?v_188) ?v_14)) (or (or ?v_24 ?v_39) ?v_150)) (or (or ?v_86 ?v_135) ?v_142)) (or (or ?v_167 ?v_181) P0)) (or (or ?v_59 ?v_70) ?v_107)) (or (or ?v_4 ?v_160) ?v_151)) (or (or ?v_44 ?v_143) ?v_60)) (or (or P19 ?v_152) ?v_50)) (or (or ?v_90 ?v_4) ?v_85)) (or (or P15 ?v_14) ?v_184)) (or (or ?v_111 ?v_15) P32)) (or (or ?v_176 ?v_23) ?v_119)) (or (or ?v_201 ?v_105) ?v_30)) (or (or ?v_110 ?v_190) ?v_136)) (or (or ?v_117 P3) ?v_156)) (or (or ?v_153 ?v_126) P12)) (or (or ?v_58 ?v_107) ?v_132)) (or (or ?v_98 ?v_151) ?v_170)) (or (or ?v_147 P13) P21)) (or (or ?v_115 ?v_178) ?v_198)) (or (or P25 ?v_3) ?v_148)) (or (or ?v_200 ?v_47) ?v_34)) (or ?v_202 ?v_184)) (or (or ?v_21 P36) ?v_203)) (or (or P39 ?v_79) ?v_43)) (or (or ?v_169 ?v_204) ?v_151)) (or (or ?v_171 ?v_195) P31)) (or (or ?v_141 ?v_150) ?v_84)) (or (or ?v_127 ?v_128) ?v_4)) (or (or ?v_74 ?v_35) ?v_122)) (or (or ?v_113 ?v_107) ?v_181)) (or (or ?v_4 P28) ?v_6)) (or (or ?v_204 ?v_146) ?v_88)) (or (or ?v_149 ?v_4) P31)) (or (or ?v_196 ?v_151) ?v_122)) (or (or P21 ?v_87) ?v_50)) (or (or P36 P15) ?v_18)) (or (or ?v_81 ?v_30) ?v_6)) (or (or ?v_63 ?v_138) ?v_141)) (or (or ?v_128 ?v_58) ?v_174)) (or (or P6 ?v_188) ?v_142)) (or (or ?v_157 ?v_73) ?v_18)) (or (or ?v_204 ?v_107) ?v_163)) (or (or ?v_32 ?v_71) ?v_59)) (or (or ?v_155 ?v_65) ?v_160)) (or (or ?v_97 ?v_121) ?v_178)) (or (or ?v_191 P34) ?v_63)) (or (or P11 ?v_205) ?v_194)) (or (or ?v_90 ?v_30) ?v_69)) (or (or ?v_59 ?v_48) P39)) (or (or ?v_199 P13) ?v_152)) (or (or ?v_32 ?v_21) ?v_136)) (or (or ?v_48 ?v_182) ?v_127)) (or (or ?v_83 ?v_125) ?v_22)) (or (or P29 ?v_100) ?v_110)) (or (or ?v_171 ?v_44) P28)) (or (or ?v_92 ?v_6) ?v_96)) (or (or ?v_98 ?v_182) P8)) (or (or ?v_87 ?v_33) ?v_163)) (or (or ?v_158 ?v_113) ?v_162)) (or (or ?v_4 ?v_92) ?v_100)) (or (or ?v_154 ?v_92) ?v_52)) (or (or P36 ?v_145) ?v_58)) (or (or ?v_120 ?v_119) ?v_181)) (or (or ?v_206 ?v_63) ?v_127)) (or (or ?v_207 ?v_133) ?v_91)) (or (or ?v_124 ?v_94) ?v_14)) (or (or ?v_23 ?v_30) ?v_116)) (or (or ?v_100 ?v_85) P6)) (or (or P7 ?v_6) P11)) (or (or ?v_120 ?v_62) ?v_141)) (or (or ?v_84 ?v_200) ?v_154)) (or (or ?v_208 ?v_189) ?v_1)) (or (or ?v_129 ?v_179) ?v_47)) (or (or P1 ?v_158) ?v_111)) (or (or P23 ?v_14) ?v_181)) (or (or ?v_136 ?v_140) ?v_133)) (or (or ?v_30 ?v_195) ?v_67)) (or (or ?v_82 ?v_112) ?v_194)) (or (or ?v_168 P7) ?v_85)) (or (or ?v_29 ?v_170) ?v_27)) (or (or P37 P3) ?v_43)) (or (or ?v_54 ?v_3) ?v_31)) (or (or ?v_157 P24) P4)) (or (or ?v_162 ?v_19) ?v_55)) (or (or ?v_168 P17) ?v_58)) (or (or ?v_183 ?v_28) ?v_203)) (or (or ?v_100 P15) ?v_155)) (or (or ?v_35 ?v_123) ?v_64)) (or (or ?v_121 ?v_78) ?v_135)) (or (or P20 ?v_142) ?v_154)) (or (or ?v_199 P38) ?v_168)) (or (or ?v_139 ?v_68) ?v_195)) (or (or ?v_85 ?v_130) ?v_159)) (or (or ?v_81 ?v_158) ?v_110)) (or (or ?v_156 P18) ?v_177)) (or (or ?v_122 ?v_132) P36)) (or (or ?v_144 ?v_15) ?v_97)) (or (or ?v_58 ?v_106) ?v_107)) (or (or ?v_93 P25) ?v_161)) (or (or ?v_209 ?v_123) P20)) (or (or ?v_194 ?v_143) P39)) (or (or ?v_20 ?v_133) ?v_31)) (or (or ?v_68 ?v_18) ?v_62)) (or (or ?v_53 P2) ?v_173)) (or (or ?v_178 ?v_67) ?v_127)) (or (or ?v_23 ?v_56) ?v_129)) (or (or ?v_168 ?v_89) P14)) (or (or ?v_178 ?v_208) ?v_140)) (or (or ?v_130 ?v_31) P21)) (or (or P4 ?v_205) ?v_107)) (or (or ?v_88 ?v_95) P3)) (or (or ?v_27 ?v_198) P5)) (or (or ?v_206 ?v_100) ?v_42)) (or (or P15 ?v_105) ?v_25)) (or (or ?v_63 ?v_71) ?v_151)) (or (or ?v_208 ?v_174) ?v_210)) (or (or ?v_104 ?v_79) ?v_179)) (or (or ?v_62 ?v_112) ?v_52)) (or (or ?v_132 ?v_104) ?v_176)) (or (or ?v_140 P30) ?v_90)) (or (or ?v_194 ?v_48) ?v_129)) (or (or ?v_94 ?v_6) ?v_179)) (or (or ?v_97 P34) ?v_127)) (or (or ?v_145 ?v_126) P23)) (or (or ?v_39 ?v_166) ?v_61)) (or (or ?v_47 ?v_208) ?v_205)) (or (or ?v_106 ?v_42) ?v_128)) (or (or P24 ?v_66) ?v_117)) (or (or ?v_16 ?v_156) P11)) (or (or P31 ?v_94) ?v_87)) (or (or ?v_11 ?v_64) ?v_56))))))))))))))))))))))))))))))))))))))
(check-sat)
(exit)
